808235
170,89,108,227,87,152,128,32,223,37,202,5,103,211,44,167,92,212,58,57,138,10,75,56,94,78,166,84,122,24,60,181,79,131,187,123,130,147,172,180,135,205,217,83,28,192,118,85,69,125,208,72,112,159,41,97,50,176,121,151,190,225,68,22,158,198,30,177,162,126,146,206,38,66,48,117,31,62,71,0,6,35,228,132,111,154,209,182,19,116,70,139,73,156,82,134,161,42,113,194,173,163,153,64,199,197,9,200,109,13,164,193,96,119,7,14,136,137,2,184,59,188,15,207,213,45,124,226,18,133,110,47,224,12,219,29,43,4,155,144,143,25,21,90,95,165,8,67,100,183,115,106,88,195,178,191,36,33,204,74,214,77,27,49,107,34,86,93,150,54,61,101,129,80,39,168,26,160,210,63,46,16,175,222,142,196,220,51,171,203,1,81,157,179,120,76,221,40,127,105,140,218,65,23,189,98,201,104,215,99,52,91,174,53,17,55,114,148,229,145,11,186,102,216,20,3,169,141,149,185,170
